\* WBM_Problem *\
Maximize
Total_weights_of_selected_edges: 0.5 e_1_1 + 0.3 e_1_3 + 0.4 e_2_1 + 0.1 e_2_4
 + 0.7 e_3_2 + 0.2 e_3_4
Subject To
_C1: e_1_1 + e_1_2 + e_1_3 + e_1_4 <= 1
_C10: e_1_1 + e_2_1 + e_3_1 <= 1
_C11: e_2_1 + e_2_2 + e_2_3 + e_2_4 <= 2
_C12: e_1_2 + e_2_2 + e_3_2 <= 1
_C13: e_2_1 + e_2_2 + e_2_3 + e_2_4 <= 2
_C14: e_1_3 + e_2_3 + e_3_3 <= 1
_C15: e_2_1 + e_2_2 + e_2_3 + e_2_4 <= 2
_C16: e_1_4 + e_2_4 + e_3_4 <= 1
_C17: e_3_1 + e_3_2 + e_3_3 + e_3_4 <= 2
_C18: e_1_1 + e_2_1 + e_3_1 <= 1
_C19: e_3_1 + e_3_2 + e_3_3 + e_3_4 <= 2
_C2: e_1_1 + e_2_1 + e_3_1 <= 1
_C20: e_1_2 + e_2_2 + e_3_2 <= 1
_C21: e_3_1 + e_3_2 + e_3_3 + e_3_4 <= 2
_C22: e_1_3 + e_2_3 + e_3_3 <= 1
_C23: e_3_1 + e_3_2 + e_3_3 + e_3_4 <= 2
_C24: e_1_4 + e_2_4 + e_3_4 <= 1
_C3: e_1_1 + e_1_2 + e_1_3 + e_1_4 <= 1
_C4: e_1_2 + e_2_2 + e_3_2 <= 1
_C5: e_1_1 + e_1_2 + e_1_3 + e_1_4 <= 1
_C6: e_1_3 + e_2_3 + e_3_3 <= 1
_C7: e_1_1 + e_1_2 + e_1_3 + e_1_4 <= 1
_C8: e_1_4 + e_2_4 + e_3_4 <= 1
_C9: e_2_1 + e_2_2 + e_2_3 + e_2_4 <= 2
Binaries
e_1_1
e_1_2
e_1_3
e_1_4
e_2_1
e_2_2
e_2_3
e_2_4
e_3_1
e_3_2
e_3_3
e_3_4
End
